0 29 5 37 20 15 57 0
0 4 45 27 13 54 52 0
0 51 3 44 32 40 12 0
0 30 48 47 36 59 21 0
0 39 9 25 55 18 50 0
0 58 10 38 11 53 7 0
0 17 26 0
0 34 46 8 19 14 35 0
0 2 28 22 42 41 43 0
0 16 49 56 23 33 6 0
